100
100
100
98
98
98
98
97
96
95
95
94
93
92
90
90
89
88
88
88
87
87
86
85
84
83
83
83
82
82
80
80
79
79
78
78
76
74
74
74
74
71
69
68
68
67
67
66
64
64
64
64
62
62
61
60
60
55
55
53
53
50
49
49
47
45
44
44
43
43
42
42
42
41
41
39
36
35
35
33
33
32
31
31
31
31
30
30
29
28
25
25
23
23
22
22
21
21
21
20
20
20
